(benchmark gametime
:status unknown
:logic QF_AUFBV
:extrafuns ((gtINDEX98  BitVec[32]))
:extrafuns ((gtFIELD__bitsForTID0__gtAGG____anonstruct_D_Work_4  Array[32:32]))
:extrafuns ((gtINDEX99  BitVec[32]))
:extrafuns ((gtAGG__rtDWork  BitVec[32]))
:extrafuns ((gtINDEX96  BitVec[32]))
:extrafuns ((gtINDEX97  BitVec[32]))
:extrafuns ((gtINDEX94  BitVec[32]))
:extrafuns ((gtINDEX95  BitVec[32]))
:extrafuns ((gtINDEX92  BitVec[32]))
:extrafuns ((gtINDEX93  BitVec[32]))
:extrafuns ((gtINDEX91  BitVec[32]))
:extrafuns ((gtINDEX90  BitVec[32]))
:extrafuns ((gtINDEX89  BitVec[32]))
:extrafuns ((gtINDEX88  BitVec[32]))
:extrafuns ((gtINDEX86  BitVec[32]))
:extrafuns ((gtINDEX87  BitVec[32]))
:extrafuns ((gtINDEX84  BitVec[32]))
:extrafuns ((gtINDEX85  BitVec[32]))
:extrafuns ((gtINDEX83  BitVec[32]))
:extrafuns ((gtINDEX81  BitVec[32]))
:extrafuns ((gtINDEX82  BitVec[32]))
:extrafuns ((gtINDEX80  BitVec[32]))
:extrafuns ((gtINDEX78  BitVec[32]))
:extrafuns ((gtINDEX79  BitVec[32]))
:extrafuns ((gtINDEX76  BitVec[32]))
:extrafuns ((gtINDEX77  BitVec[32]))
:extrafuns ((gtINDEX75  BitVec[32]))
:extrafuns ((gtINDEX73  BitVec[32]))
:extrafuns ((gtINDEX74  BitVec[32]))
:extrafuns ((gtINDEX71  BitVec[32]))
:extrafuns ((gtINDEX72  BitVec[32]))
:extrafuns ((gtINDEX69  BitVec[32]))
:extrafuns ((gtINDEX70  BitVec[32]))
:extrafuns ((gtINDEX67  BitVec[32]))
:extrafuns ((gtINDEX68  BitVec[32]))
:extrafuns ((gtINDEX65  BitVec[32]))
:extrafuns ((gtINDEX66  BitVec[32]))
:extrafuns ((gtINDEX63  BitVec[32]))
:extrafuns ((gtINDEX64  BitVec[32]))
:extrafuns ((gtINDEX61  BitVec[32]))
:extrafuns ((gtINDEX62  BitVec[32]))
:extrafuns ((gtINDEX59  BitVec[32]))
:extrafuns ((gtINDEX60  BitVec[32]))
:extrafuns ((gtINDEX57  BitVec[32]))
:extrafuns ((gtINDEX58  BitVec[32]))
:extrafuns ((gtINDEX55  BitVec[32]))
:extrafuns ((gtINDEX56  BitVec[32]))
:extrafuns ((gtINDEX53  BitVec[32]))
:extrafuns ((gtINDEX54  BitVec[32]))
:extrafuns ((gtINDEX51  BitVec[32]))
:extrafuns ((gtINDEX52  BitVec[32]))
:extrafuns ((gtINDEX49  BitVec[32]))
:extrafuns ((gtINDEX50  BitVec[32]))
:extrafuns ((gtINDEX47  BitVec[32]))
:extrafuns ((gtINDEX48  BitVec[32]))
:extrafuns ((gtINDEX46  BitVec[32]))
:extrafuns ((gtINDEX45  BitVec[32]))
:extrafuns ((gtINDEX43  BitVec[32]))
:extrafuns ((gtINDEX44  BitVec[32]))
:extrafuns ((gtINDEX41  BitVec[32]))
:extrafuns ((gtINDEX42  BitVec[32]))
:extrafuns ((gtINDEX40  BitVec[32]))
:extrafuns ((gtINDEX38  BitVec[32]))
:extrafuns ((gtINDEX39  BitVec[32]))
:extrafuns ((gtINDEX36  BitVec[32]))
:extrafuns ((gtINDEX37  BitVec[32]))
:extrafuns ((gtINDEX35  BitVec[32]))
:extrafuns ((gtINDEX33  BitVec[32]))
:extrafuns ((gtINDEX34  BitVec[32]))
:extrafuns ((gtINDEX31  BitVec[32]))
:extrafuns ((gtINDEX32  BitVec[32]))
:extrafuns ((gtINDEX29  BitVec[32]))
:extrafuns ((gtINDEX30  BitVec[32]))
:extrafuns ((gtINDEX27  BitVec[32]))
:extrafuns ((gtINDEX28  BitVec[32]))
:extrafuns ((gtINDEX25  BitVec[32]))
:extrafuns ((gtINDEX26  BitVec[32]))
:extrafuns ((gtINDEX23  BitVec[32]))
:extrafuns ((gtINDEX24  BitVec[32]))
:extrafuns ((gtINDEX21  BitVec[32]))
:extrafuns ((gtINDEX22  BitVec[32]))
:extrafuns ((gtINDEX19  BitVec[32]))
:extrafuns ((gtINDEX20  BitVec[32]))
:extrafuns ((gtINDEX17  BitVec[32]))
:extrafuns ((gtINDEX18  BitVec[32]))
:extrafuns ((gtINDEX15  BitVec[32]))
:extrafuns ((gtINDEX16  BitVec[32]))
:extrafuns ((gtINDEX13  BitVec[32]))
:extrafuns ((gtINDEX14  BitVec[32]))
:extrafuns ((gtINDEX11  BitVec[32]))
:extrafuns ((gtINDEX12  BitVec[32]))
:extrafuns ((gtINDEX9  BitVec[32]))
:extrafuns ((gtINDEX10  BitVec[32]))
:extrafuns ((gtINDEX7  BitVec[32]))
:extrafuns ((gtINDEX8  BitVec[32]))
:extrafuns ((gtINDEX6  BitVec[32]))
:extrafuns ((gtINDEX5  BitVec[32]))
:extrafuns ((gtINDEX4  BitVec[32]))
:extrafuns ((gtINDEX3  BitVec[32]))
:extrafuns ((gtINDEX2  BitVec[32]))
:extrafuns ((gtINDEX1  BitVec[32]))
:extrafuns ((gtINDEX0  BitVec[32]))
:extrafuns ((gtFIELD__is_Eng__gtAGG____anonstruct_bitsForTID0_5_1_  Array[32:1]))
:extrafuns ((gtFIELD__is_Eng__gtAGG____anonstruct_bitsForTID0_5_2_  Array[32:1]))
:extrafuns ((sf_previousEvent_1_  BitVec[32]))
:extrafuns ((sfEvent__2_  BitVec[32]))
:extrafuns ((gtFIELD__is_Eng__gtAGG____anonstruct_bitsForTID0_5  Array[32:1]))
:extrafuns ((gtFIELD__sent__gtAGG____anonstruct_D_Work_4_1_  Array[32:32]))
:extrafuns ((gtFIELD__sent__gtAGG____anonstruct_D_Work_4_2_  Array[32:32]))
:extrafuns ((gtFIELD__is_active_Eng__gtAGG____anonstruct_bitsForTID0_5  Array[32:1]))
:extrafuns ((gtFIELD__temporalCounter_i5__gtAGG____anonstruct_D_Work_4_1_  Array[32:32]))
:extrafuns ((gtFIELD__temporalCounter_i5__gtAGG____anonstruct_D_Work_4_2_  Array[32:32]))
:extrafuns ((gtFIELD__is_PURI__gtAGG____anonstruct_bitsForTID0_5  Array[32:2]))
:extrafuns ((gtFIELD__is_PURI__gtAGG____anonstruct_bitsForTID0_5_1_  Array[32:2]))
:extrafuns ((gtFIELD__n_t_a__gtAGG____anonstruct_D_Work_4  Array[32:32]))
:extrafuns ((gtFIELD__n_t_a__gtAGG____anonstruct_D_Work_4_1_  Array[32:32]))
:extrafuns ((sfEvent__1_  BitVec[32]))
:extrafuns ((gtFIELD__is_active_PURI__gtAGG____anonstruct_bitsForTID0_5  Array[32:1]))
:extrafuns ((gtFIELD__is_PVRP__gtAGG____anonstruct_bitsForTID0_5  Array[32:2]))
:extrafuns ((gtFIELD__is_active_PVRP__gtAGG____anonstruct_bitsForTID0_5  Array[32:1]))
:extrafuns ((gtFIELD__is_active_PPVARP__gtAGG____anonstruct_bitsForTID0_5  Array[32:1]))
:extrafuns ((gtFIELD__is_PLRI__gtAGG____anonstruct_bitsForTID0_5_1_  Array[32:2]))
:extrafuns ((gtFIELD__is_PLRI__gtAGG____anonstruct_bitsForTID0_5_2_  Array[32:2]))
:extrafuns ((gtFIELD__is_active_PLRI__gtAGG____anonstruct_bitsForTID0_5  Array[32:1]))
:extrafuns ((gtFIELD__is_PAVI__gtAGG____anonstruct_bitsForTID0_5_1_  Array[32:3]))
:extrafuns ((gtFIELD__is_PAVI__gtAGG____anonstruct_bitsForTID0_5_2_  Array[32:3]))
:extrafuns ((gtFIELD__is_active_PAVI__gtAGG____anonstruct_bitsForTID0_5  Array[32:1]))
:extrafuns ((sfEvent_  BitVec[32]))
:extrafuns ((gtFIELD__sent__gtAGG____anonstruct_D_Work_4  Array[32:32]))
:extrafuns ((gtFIELD__is_PLRI__gtAGG____anonstruct_bitsForTID0_5  Array[32:2]))
:extrafuns ((gtFIELD__is_PAVI__gtAGG____anonstruct_bitsForTID0_5  Array[32:3]))
:extrafuns ((gtFIELD__temporalCounter_i5__gtAGG____anonstruct_D_Work_4  Array[32:32]))
:extrafuns ((gtFIELD__temporalCounter_i4__gtAGG____anonstruct_D_Work_4  Array[32:32]))
:extrafuns ((gtFIELD__temporalCounter_i3__gtAGG____anonstruct_D_Work_4  Array[32:32]))
:extrafuns ((gtFIELD__temporalCounter_i2__gtAGG____anonstruct_D_Work_4  Array[32:32]))
:extrafuns ((gtFIELD__temporalCounter_i1__gtAGG____anonstruct_D_Work_4  Array[32:32]))
:extrapreds ((constraint166 ))
:extrapreds ((constraint165 ))
:extrapreds ((constraint164 ))
:extrapreds ((constraint163 ))
:extrapreds ((constraint162 ))
:extrapreds ((constraint161 ))
:extrapreds ((constraint160 ))
:extrapreds ((constraint159 ))
:extrapreds ((constraint158 ))
:extrapreds ((constraint157 ))
:extrapreds ((constraint156 ))
:extrapreds ((constraint155 ))
:extrapreds ((constraint154 ))
:extrapreds ((constraint153 ))
:extrapreds ((constraint152 ))
:extrapreds ((constraint151 ))
:extrapreds ((constraint150 ))
:extrapreds ((constraint149 ))
:extrapreds ((constraint148 ))
:extrapreds ((constraint147 ))
:extrapreds ((constraint146 ))
:extrapreds ((constraint145 ))
:extrapreds ((constraint144 ))
:extrapreds ((constraint143 ))
:extrapreds ((constraint142 ))
:extrapreds ((constraint141 ))
:extrapreds ((constraint140 ))
:extrapreds ((constraint139 ))
:extrapreds ((constraint138 ))
:extrapreds ((constraint137 ))
:extrapreds ((constraint136 ))
:extrapreds ((constraint135 ))
:extrapreds ((constraint134 ))
:extrapreds ((constraint133 ))
:extrapreds ((constraint132 ))
:extrapreds ((constraint131 ))
:extrapreds ((constraint130 ))
:extrapreds ((constraint129 ))
:extrapreds ((constraint128 ))
:extrapreds ((constraint127 ))
:extrapreds ((constraint126 ))
:extrapreds ((constraint125 ))
:extrapreds ((constraint124 ))
:extrapreds ((constraint123 ))
:extrapreds ((constraint122 ))
:extrapreds ((constraint121 ))
:extrapreds ((constraint120 ))
:extrapreds ((constraint119 ))
:extrapreds ((constraint118 ))
:extrapreds ((constraint117 ))
:extrapreds ((constraint116 ))
:extrapreds ((constraint115 ))
:extrapreds ((constraint114 ))
:extrapreds ((constraint113 ))
:extrapreds ((constraint112 ))
:extrapreds ((constraint111 ))
:extrapreds ((constraint110 ))
:extrapreds ((constraint109 ))
:extrapreds ((constraint108 ))
:extrapreds ((constraint107 ))
:extrapreds ((constraint106 ))
:extrapreds ((constraint105 ))
:extrapreds ((constraint104 ))
:extrapreds ((constraint103 ))
:extrapreds ((constraint102 ))
:extrapreds ((constraint101 ))
:extrapreds ((constraint100 ))
:extrapreds ((constraint99 ))
:extrapreds ((constraint98 ))
:extrapreds ((constraint97 ))
:extrapreds ((constraint96 ))
:extrapreds ((constraint95 ))
:extrapreds ((constraint94 ))
:extrapreds ((constraint93 ))
:extrapreds ((constraint92 ))
:extrapreds ((constraint91 ))
:extrapreds ((constraint90 ))
:extrapreds ((constraint89 ))
:extrapreds ((constraint88 ))
:extrapreds ((constraint87 ))
:extrapreds ((constraint86 ))
:extrapreds ((constraint85 ))
:extrapreds ((constraint84 ))
:extrapreds ((constraint83 ))
:extrapreds ((constraint82 ))
:extrapreds ((constraint81 ))
:extrapreds ((constraint80 ))
:extrapreds ((constraint79 ))
:extrapreds ((constraint78 ))
:extrapreds ((constraint77 ))
:extrapreds ((constraint76 ))
:extrapreds ((constraint75 ))
:extrapreds ((constraint74 ))
:extrapreds ((constraint73 ))
:extrapreds ((constraint72 ))
:extrapreds ((constraint71 ))
:extrapreds ((constraint70 ))
:extrapreds ((constraint69 ))
:extrapreds ((constraint68 ))
:extrapreds ((constraint67 ))
:extrapreds ((constraint66 ))
:extrapreds ((constraint65 ))
:extrapreds ((constraint64 ))
:extrapreds ((constraint63 ))
:extrapreds ((constraint62 ))
:extrapreds ((constraint61 ))
:extrapreds ((constraint60 ))
:extrapreds ((constraint59 ))
:extrapreds ((constraint58 ))
:extrapreds ((constraint57 ))
:extrapreds ((constraint56 ))
:extrapreds ((constraint55 ))
:extrapreds ((constraint54 ))
:extrapreds ((constraint53 ))
:extrapreds ((constraint52 ))
:extrapreds ((constraint51 ))
:extrapreds ((constraint50 ))
:extrapreds ((constraint49 ))
:extrapreds ((constraint48 ))
:extrapreds ((constraint47 ))
:extrapreds ((constraint46 ))
:extrapreds ((constraint45 ))
:extrapreds ((constraint44 ))
:extrapreds ((constraint43 ))
:extrapreds ((constraint42 ))
:extrapreds ((constraint41 ))
:extrapreds ((constraint40 ))
:extrapreds ((constraint39 ))
:extrapreds ((constraint38 ))
:extrapreds ((constraint37 ))
:extrapreds ((constraint36 ))
:extrapreds ((constraint35 ))
:extrapreds ((constraint34 ))
:extrapreds ((constraint33 ))
:extrapreds ((constraint32 ))
:extrapreds ((constraint31 ))
:extrapreds ((constraint30 ))
:extrapreds ((constraint29 ))
:extrapreds ((constraint28 ))
:extrapreds ((constraint27 ))
:extrapreds ((constraint26 ))
:extrapreds ((constraint25 ))
:extrapreds ((constraint24 ))
:extrapreds ((constraint23 ))
:extrapreds ((constraint22 ))
:extrapreds ((constraint21 ))
:extrapreds ((constraint20 ))
:extrapreds ((constraint19 ))
:extrapreds ((constraint18 ))
:extrapreds ((constraint17 ))
:extrapreds ((constraint16 ))
:extrapreds ((constraint15 ))
:extrapreds ((constraint14 ))
:extrapreds ((constraint13 ))
:extrapreds ((constraint12 ))
:extrapreds ((constraint11 ))
:extrapreds ((constraint10 ))
:extrapreds ((constraint9 ))
:extrapreds ((constraint8 ))
:extrapreds ((constraint7 ))
:extrapreds ((constraint6 ))
:extrapreds ((constraint5 ))
:extrapreds ((constraint4 ))
:extrapreds ((constraint3 ))
:extrapreds ((constraint2 ))
:extrapreds ((constraint1 ))
:extrapreds ((constraint0 ))
:formula
(flet ($x849 (and constraint0 constraint1 constraint2 constraint3 constraint4 constraint5 constraint6 constraint7 constraint8 constraint9 constraint10 constraint11 constraint12 constraint13 constraint14 constraint15 constraint16 constraint17 constraint18 constraint19 constraint20 constraint21 constraint22 constraint23 constraint24 constraint25 constraint26 constraint27 constraint28 constraint29 constraint30 constraint31 constraint32 constraint33 constraint34 constraint35 constraint36 constraint37 constraint38 constraint39 constraint40 constraint41 constraint42 constraint43 constraint44 constraint45 constraint46 constraint47 constraint48 constraint49 constraint50 constraint51 constraint52 constraint53 constraint54 constraint55 constraint56 constraint57 constraint58 constraint59 constraint60 constraint61 constraint62 constraint63 constraint64 constraint65 constraint66 constraint67 constraint68 constraint69 constraint70 constraint71 constraint72 constraint73 constraint74 constraint75 constraint76 constraint77 constraint78 constraint79 constraint80 constraint81 constraint82 constraint83 constraint84 constraint85 constraint86 constraint87 constraint88 constraint89 constraint90 constraint91 constraint92 constraint93 constraint94 constraint95 constraint96 constraint97 constraint98 constraint99 constraint100 constraint101 constraint102 constraint103 constraint104 constraint105 constraint106 constraint107 constraint108 constraint109 constraint110 constraint111 constraint112 constraint113 constraint114 constraint115 constraint116 constraint117 constraint118 constraint119 constraint120 constraint121 constraint122 constraint123 constraint124 constraint125 constraint126 constraint127 constraint128 constraint129 constraint130 constraint131 constraint132 constraint133 constraint134 constraint135 constraint136 constraint137 constraint138 constraint139 constraint140 constraint141 constraint142 constraint143 constraint144 constraint145 constraint146 constraint147 constraint148 constraint149 constraint150 constraint151 constraint152 constraint153 constraint154 constraint155 constraint156 constraint157 constraint158 constraint159 constraint160 constraint161 constraint162 constraint163 constraint164 constraint165 constraint166))
(flet ($x513 (= gtINDEX99 (select gtFIELD__bitsForTID0__gtAGG____anonstruct_D_Work_4 gtINDEX98)))
(flet ($x509 (= gtINDEX97 (select gtFIELD__bitsForTID0__gtAGG____anonstruct_D_Work_4 gtINDEX96)))
(flet ($x505 (= gtINDEX95 (select gtFIELD__bitsForTID0__gtAGG____anonstruct_D_Work_4 gtINDEX94)))
(flet ($x501 (= gtINDEX93 (select gtFIELD__bitsForTID0__gtAGG____anonstruct_D_Work_4 gtINDEX92)))
(flet ($x493 (= gtINDEX87 (select gtFIELD__bitsForTID0__gtAGG____anonstruct_D_Work_4 gtINDEX86)))
(flet ($x489 (= gtINDEX85 (select gtFIELD__bitsForTID0__gtAGG____anonstruct_D_Work_4 gtINDEX84)))
(flet ($x484 (= gtINDEX82 (select gtFIELD__bitsForTID0__gtAGG____anonstruct_D_Work_4 gtINDEX81)))
(flet ($x479 (= gtINDEX79 (select gtFIELD__bitsForTID0__gtAGG____anonstruct_D_Work_4 gtINDEX78)))
(flet ($x475 (= gtINDEX77 (select gtFIELD__bitsForTID0__gtAGG____anonstruct_D_Work_4 gtINDEX76)))
(flet ($x470 (= gtINDEX74 (select gtFIELD__bitsForTID0__gtAGG____anonstruct_D_Work_4 gtINDEX73)))
(flet ($x466 (= gtINDEX72 (select gtFIELD__bitsForTID0__gtAGG____anonstruct_D_Work_4 gtINDEX71)))
(flet ($x462 (= gtINDEX70 (select gtFIELD__bitsForTID0__gtAGG____anonstruct_D_Work_4 gtINDEX69)))
(flet ($x458 (= gtINDEX68 (select gtFIELD__bitsForTID0__gtAGG____anonstruct_D_Work_4 gtINDEX67)))
(flet ($x454 (= gtINDEX66 (select gtFIELD__bitsForTID0__gtAGG____anonstruct_D_Work_4 gtINDEX65)))
(flet ($x450 (= gtINDEX64 (select gtFIELD__bitsForTID0__gtAGG____anonstruct_D_Work_4 gtINDEX63)))
(flet ($x446 (= gtINDEX62 (select gtFIELD__bitsForTID0__gtAGG____anonstruct_D_Work_4 gtINDEX61)))
(flet ($x442 (= gtINDEX60 (select gtFIELD__bitsForTID0__gtAGG____anonstruct_D_Work_4 gtINDEX59)))
(flet ($x438 (= gtINDEX58 (select gtFIELD__bitsForTID0__gtAGG____anonstruct_D_Work_4 gtINDEX57)))
(flet ($x434 (= gtINDEX56 (select gtFIELD__bitsForTID0__gtAGG____anonstruct_D_Work_4 gtINDEX55)))
(flet ($x430 (= gtINDEX54 (select gtFIELD__bitsForTID0__gtAGG____anonstruct_D_Work_4 gtINDEX53)))
(flet ($x426 (= gtINDEX52 (select gtFIELD__bitsForTID0__gtAGG____anonstruct_D_Work_4 gtINDEX51)))
(flet ($x422 (= gtINDEX50 (select gtFIELD__bitsForTID0__gtAGG____anonstruct_D_Work_4 gtINDEX49)))
(flet ($x418 (= gtINDEX48 (select gtFIELD__bitsForTID0__gtAGG____anonstruct_D_Work_4 gtINDEX47)))
(flet ($x412 (= gtINDEX44 (select gtFIELD__bitsForTID0__gtAGG____anonstruct_D_Work_4 gtINDEX43)))
(flet ($x408 (= gtINDEX42 (select gtFIELD__bitsForTID0__gtAGG____anonstruct_D_Work_4 gtINDEX41)))
(flet ($x403 (= gtINDEX39 (select gtFIELD__bitsForTID0__gtAGG____anonstruct_D_Work_4 gtINDEX38)))
(flet ($x399 (= gtINDEX37 (select gtFIELD__bitsForTID0__gtAGG____anonstruct_D_Work_4 gtINDEX36)))
(flet ($x394 (= gtINDEX34 (select gtFIELD__bitsForTID0__gtAGG____anonstruct_D_Work_4 gtINDEX33)))
(flet ($x390 (= gtINDEX32 (select gtFIELD__bitsForTID0__gtAGG____anonstruct_D_Work_4 gtINDEX31)))
(flet ($x386 (= gtINDEX30 (select gtFIELD__bitsForTID0__gtAGG____anonstruct_D_Work_4 gtINDEX29)))
(flet ($x382 (= gtINDEX28 (select gtFIELD__bitsForTID0__gtAGG____anonstruct_D_Work_4 gtINDEX27)))
(flet ($x378 (= gtINDEX26 (select gtFIELD__bitsForTID0__gtAGG____anonstruct_D_Work_4 gtINDEX25)))
(flet ($x374 (= gtINDEX24 (select gtFIELD__bitsForTID0__gtAGG____anonstruct_D_Work_4 gtINDEX23)))
(flet ($x370 (= gtINDEX22 (select gtFIELD__bitsForTID0__gtAGG____anonstruct_D_Work_4 gtINDEX21)))
(flet ($x366 (= gtINDEX20 (select gtFIELD__bitsForTID0__gtAGG____anonstruct_D_Work_4 gtINDEX19)))
(flet ($x362 (= gtINDEX18 (select gtFIELD__bitsForTID0__gtAGG____anonstruct_D_Work_4 gtINDEX17)))
(flet ($x358 (= gtINDEX16 (select gtFIELD__bitsForTID0__gtAGG____anonstruct_D_Work_4 gtINDEX15)))
(flet ($x354 (= gtINDEX14 (select gtFIELD__bitsForTID0__gtAGG____anonstruct_D_Work_4 gtINDEX13)))
(flet ($x350 (= gtINDEX12 (select gtFIELD__bitsForTID0__gtAGG____anonstruct_D_Work_4 gtINDEX11)))
(flet ($x346 (= gtINDEX10 (select gtFIELD__bitsForTID0__gtAGG____anonstruct_D_Work_4 gtINDEX9)))
(flet ($x342 (= gtINDEX8 (select gtFIELD__bitsForTID0__gtAGG____anonstruct_D_Work_4 gtINDEX7)))
(let (?x319 (extract[0:0] bv1[32]))
(let (?x329 (store gtFIELD__is_Eng__gtAGG____anonstruct_bitsForTID0_5_1_ gtINDEX99 ?x319))
(flet ($x647 (iff constraint66 (= gtFIELD__is_Eng__gtAGG____anonstruct_bitsForTID0_5_2_ ?x329)))
(let (?x325 (select gtFIELD__is_Eng__gtAGG____anonstruct_bitsForTID0_5_1_ gtINDEX97))
(let (?x320 (store gtFIELD__is_Eng__gtAGG____anonstruct_bitsForTID0_5 gtINDEX95 ?x319))
(flet ($x641 (iff constraint63 (= gtFIELD__is_Eng__gtAGG____anonstruct_bitsForTID0_5_1_ ?x320)))
(let (?x316 (zero_extend[31] (select gtFIELD__is_Eng__gtAGG____anonstruct_bitsForTID0_5 gtINDEX93)))
(let (?x312 (store gtFIELD__sent__gtAGG____anonstruct_D_Work_4_1_ gtINDEX91 bv0[32]))
(flet ($x637 (iff constraint61 (= gtFIELD__sent__gtAGG____anonstruct_D_Work_4_2_ ?x312)))
(let (?x190 (bvmul bv4294967295[32] bv1[32]))
(flet ($x310 (= (select gtFIELD__sent__gtAGG____anonstruct_D_Work_4_1_ gtINDEX90) ?x190))
(flet ($x306 (= (select gtFIELD__sent__gtAGG____anonstruct_D_Work_4_1_ gtINDEX89) bv9[32]))
(flet ($x301 (= (select gtFIELD__sent__gtAGG____anonstruct_D_Work_4_1_ gtINDEX88) bv4[32]))
(let (?x297 (zero_extend[31] (select gtFIELD__is_Eng__gtAGG____anonstruct_bitsForTID0_5 gtINDEX87)))
(let (?x291 (select gtFIELD__is_active_Eng__gtAGG____anonstruct_bitsForTID0_5 gtINDEX85))
(let (?x288 (store gtFIELD__temporalCounter_i5__gtAGG____anonstruct_D_Work_4_1_ gtINDEX83 bv0[32]))
(flet ($x625 (iff constraint55 (= gtFIELD__temporalCounter_i5__gtAGG____anonstruct_D_Work_4_2_ ?x288)))
(let (?x285 (store gtFIELD__is_PURI__gtAGG____anonstruct_bitsForTID0_5 gtINDEX82 (extract[1:0] bv1[32])))
(flet ($x623 (iff constraint54 (= gtFIELD__is_PURI__gtAGG____anonstruct_bitsForTID0_5_1_ ?x285)))
(flet ($x282 (= gtFIELD__n_t_a__gtAGG____anonstruct_D_Work_4_1_ (store gtFIELD__n_t_a__gtAGG____anonstruct_D_Work_4 gtINDEX80 bv0[32])))
(let (?x275 (select gtFIELD__is_PURI__gtAGG____anonstruct_bitsForTID0_5 gtINDEX79))
(let (?x270 (select gtFIELD__is_active_PURI__gtAGG____anonstruct_bitsForTID0_5 gtINDEX77))
(flet ($x267 (= (select gtFIELD__sent__gtAGG____anonstruct_D_Work_4_1_ gtINDEX75) bv0[32]))
(let (?x262 (select gtFIELD__is_PVRP__gtAGG____anonstruct_bitsForTID0_5 gtINDEX74))
(let (?x257 (select gtFIELD__is_PVRP__gtAGG____anonstruct_bitsForTID0_5 gtINDEX72))
(let (?x252 (select gtFIELD__is_active_PVRP__gtAGG____anonstruct_bitsForTID0_5 gtINDEX70))
(let (?x246 (select gtFIELD__is_active_PPVARP__gtAGG____anonstruct_bitsForTID0_5 gtINDEX68))
(let (?x132 (extract[1:0] bv0[32]))
(let (?x243 (store gtFIELD__is_PLRI__gtAGG____anonstruct_bitsForTID0_5_1_ gtINDEX66 ?x132))
(flet ($x601 (iff constraint43 (= gtFIELD__is_PLRI__gtAGG____anonstruct_bitsForTID0_5_2_ ?x243)))
(let (?x238 (select gtFIELD__is_PLRI__gtAGG____anonstruct_bitsForTID0_5_1_ gtINDEX64))
(let (?x233 (select gtFIELD__is_PLRI__gtAGG____anonstruct_bitsForTID0_5_1_ gtINDEX62))
(let (?x228 (select gtFIELD__is_active_PLRI__gtAGG____anonstruct_bitsForTID0_5 gtINDEX60))
(let (?x113 (extract[2:0] bv0[32]))
(let (?x225 (store gtFIELD__is_PAVI__gtAGG____anonstruct_bitsForTID0_5_1_ gtINDEX58 ?x113))
(flet ($x593 (iff constraint39 (= gtFIELD__is_PAVI__gtAGG____anonstruct_bitsForTID0_5_2_ ?x225)))
(let (?x220 (select gtFIELD__is_PAVI__gtAGG____anonstruct_bitsForTID0_5_1_ gtINDEX56))
(let (?x215 (select gtFIELD__is_PAVI__gtAGG____anonstruct_bitsForTID0_5_1_ gtINDEX54))
(let (?x210 (select gtFIELD__is_PAVI__gtAGG____anonstruct_bitsForTID0_5_1_ gtINDEX52))
(let (?x205 (select gtFIELD__is_PAVI__gtAGG____anonstruct_bitsForTID0_5_1_ gtINDEX50))
(let (?x200 (select gtFIELD__is_active_PAVI__gtAGG____anonstruct_bitsForTID0_5 gtINDEX48))
(flet ($x192 (= gtFIELD__sent__gtAGG____anonstruct_D_Work_4_1_ (store gtFIELD__sent__gtAGG____anonstruct_D_Work_4 gtINDEX46 ?x190)))
(flet ($x188 (= (select gtFIELD__sent__gtAGG____anonstruct_D_Work_4 gtINDEX45) bv4[32]))
(let (?x184 (zero_extend[31] (select gtFIELD__is_Eng__gtAGG____anonstruct_bitsForTID0_5 gtINDEX44)))
(let (?x178 (select gtFIELD__is_active_Eng__gtAGG____anonstruct_bitsForTID0_5 gtINDEX42))
(flet ($x175 (= (select gtFIELD__sent__gtAGG____anonstruct_D_Work_4 gtINDEX40) bv0[32]))
(let (?x165 (select gtFIELD__is_PURI__gtAGG____anonstruct_bitsForTID0_5 gtINDEX39))
(let (?x160 (select gtFIELD__is_active_PURI__gtAGG____anonstruct_bitsForTID0_5 gtINDEX37))
(flet ($x157 (= (select gtFIELD__sent__gtAGG____anonstruct_D_Work_4 gtINDEX35) bv0[32]))
(let (?x152 (select gtFIELD__is_PVRP__gtAGG____anonstruct_bitsForTID0_5 gtINDEX34))
(let (?x147 (select gtFIELD__is_PVRP__gtAGG____anonstruct_bitsForTID0_5 gtINDEX32))
(let (?x142 (select gtFIELD__is_active_PVRP__gtAGG____anonstruct_bitsForTID0_5 gtINDEX30))
(let (?x136 (select gtFIELD__is_active_PPVARP__gtAGG____anonstruct_bitsForTID0_5 gtINDEX28))
(let (?x133 (store gtFIELD__is_PLRI__gtAGG____anonstruct_bitsForTID0_5 gtINDEX26 ?x132))
(flet ($x547 (iff constraint16 (= gtFIELD__is_PLRI__gtAGG____anonstruct_bitsForTID0_5_1_ ?x133)))
(let (?x127 (select gtFIELD__is_PLRI__gtAGG____anonstruct_bitsForTID0_5 gtINDEX24))
(let (?x122 (select gtFIELD__is_PLRI__gtAGG____anonstruct_bitsForTID0_5 gtINDEX22))
(let (?x117 (select gtFIELD__is_active_PLRI__gtAGG____anonstruct_bitsForTID0_5 gtINDEX20))
(let (?x114 (store gtFIELD__is_PAVI__gtAGG____anonstruct_bitsForTID0_5 gtINDEX18 ?x113))
(flet ($x539 (iff constraint12 (= gtFIELD__is_PAVI__gtAGG____anonstruct_bitsForTID0_5_1_ ?x114)))
(let (?x107 (select gtFIELD__is_PAVI__gtAGG____anonstruct_bitsForTID0_5 gtINDEX16))
(let (?x101 (select gtFIELD__is_PAVI__gtAGG____anonstruct_bitsForTID0_5 gtINDEX14))
(let (?x95 (select gtFIELD__is_PAVI__gtAGG____anonstruct_bitsForTID0_5 gtINDEX12))
(let (?x90 (select gtFIELD__is_PAVI__gtAGG____anonstruct_bitsForTID0_5 gtINDEX10))
(let (?x84 (select gtFIELD__is_active_PAVI__gtAGG____anonstruct_bitsForTID0_5 gtINDEX8))
(let (?x78 (select gtFIELD__temporalCounter_i5__gtAGG____anonstruct_D_Work_4 gtINDEX5))
(let (?x81 (store gtFIELD__temporalCounter_i5__gtAGG____anonstruct_D_Work_4 gtINDEX6 (bvadd ?x78 bv1[32])))
(flet ($x527 (iff constraint6 (= gtFIELD__temporalCounter_i5__gtAGG____anonstruct_D_Work_4_1_ ?x81)))
(let (?x74 (select gtFIELD__temporalCounter_i5__gtAGG____anonstruct_D_Work_4 gtINDEX4))
(let (?x70 (select gtFIELD__temporalCounter_i4__gtAGG____anonstruct_D_Work_4 gtINDEX3))
(let (?x66 (select gtFIELD__temporalCounter_i3__gtAGG____anonstruct_D_Work_4 gtINDEX2))
(let (?x62 (select gtFIELD__temporalCounter_i2__gtAGG____anonstruct_D_Work_4 gtINDEX1))
(let (?x57 (select gtFIELD__temporalCounter_i1__gtAGG____anonstruct_D_Work_4 gtINDEX0))
(flet ($x848 (and (iff constraint0 (= sfEvent_ bv8[32])) (iff constraint1 (not (bvult ?x57 bv4294967295[32]))) (iff constraint2 (not (bvult ?x62 bv4294967295[32]))) (iff constraint3 (not (bvult ?x66 bv4294967295[32]))) (iff constraint4 (not (bvult ?x70 bv4294967295[32]))) (iff constraint5 (bvult ?x74 bv4294967295[32])) $x527 (iff constraint7 (not (= (zero_extend[31] ?x84) bv0[32]))) (iff constraint8 (not (= (zero_extend[29] ?x90) bv1[32]))) (iff constraint9 (not (= (zero_extend[29] ?x95) bv2[32]))) (iff constraint10 (not (= (zero_extend[29] ?x101) bv3[32]))) (iff constraint11 (not (= (zero_extend[29] ?x107) bv4[32]))) $x539 (iff constraint13 (not (= (zero_extend[31] ?x117) bv0[32]))) (iff constraint14 (not (= (zero_extend[30] ?x122) bv1[32]))) (iff constraint15 (not (= (zero_extend[30] ?x127) bv2[32]))) $x547 (iff constraint17 (not (not (= (zero_extend[31] ?x136) bv0[32])))) (iff constraint18 (not (= (zero_extend[31] ?x142) bv0[32]))) (iff constraint19 (not (= (zero_extend[30] ?x147) bv1[32]))) (iff constraint20 (= (zero_extend[30] ?x152) bv2[32])) (iff constraint21 (not $x157)) (iff constraint22 (not (= (zero_extend[31] ?x160) bv0[32]))) (iff constraint23 (= (zero_extend[30] ?x165) bv1[32])) (iff constraint24 (not (= sfEvent_ bv4[32]))) (iff constraint25 (not (= sfEvent_ bv5[32]))) (iff constraint26 (not $x175)) (iff constraint27 (not (= (zero_extend[31] ?x178) bv0[32]))) (iff constraint28 (= ?x184 bv1[32])) (iff constraint29 $x188) (iff constraint30 $x192) (iff constraint31 (= sf_previousEvent_1_ sfEvent_)) (iff constraint32 (= sfEvent__1_ bv5[32])) (iff constraint33 (not (= sfEvent__1_ bv8[32]))) (iff constraint34 (not (= (zero_extend[31] ?x200) bv0[32]))) (iff constraint35 (not (= (zero_extend[29] ?x205) bv1[32]))) (iff constraint36 (not (= (zero_extend[29] ?x210) bv2[32]))) (iff constraint37 (not (= (zero_extend[29] ?x215) bv3[32]))) (iff constraint38 (not (= (zero_extend[29] ?x220) bv4[32]))) $x593 (iff constraint40 (not (= (zero_extend[31] ?x228) bv0[32]))) (iff constraint41 (not (= (zero_extend[30] ?x233) bv1[32]))) (iff constraint42 (not (= (zero_extend[30] ?x238) bv2[32]))) $x601 (iff constraint44 (not (not (= (zero_extend[31] ?x246) bv0[32])))) (iff constraint45 (not (= (zero_extend[31] ?x252) bv0[32]))) (iff constraint46 (not (= (zero_extend[30] ?x257) bv1[32]))) (iff constraint47 (= (zero_extend[30] ?x262) bv2[32])) (iff constraint48 (not $x267)) (iff constraint49 (not (= (zero_extend[31] ?x270) bv0[32]))) (iff constraint50 (= (zero_extend[30] ?x275) bv1[32])) (iff constraint51 (not (= sfEvent__1_ bv4[32]))) (iff constraint52 (= sfEvent__1_ bv5[32])) (iff constraint53 $x282) $x623 $x625 (iff constraint56 (not (= (zero_extend[31] ?x291) bv0[32]))) (iff constraint57 (= ?x297 bv1[32])) (iff constraint58 (not $x301)) (iff constraint59 (not $x306)) (iff constraint60 $x310) $x637 (iff constraint62 (= ?x316 bv1[32])) $x641 (iff constraint64 (= sfEvent__2_ sf_previousEvent_1_)) (iff constraint65 (= (zero_extend[31] ?x325) bv1[32])) $x647 (iff constraint67 (= gtINDEX0 gtAGG__rtDWork)) (iff constraint68 (= gtINDEX1 gtAGG__rtDWork)) (iff constraint69 (= gtINDEX2 gtAGG__rtDWork)) (iff constraint70 (= gtINDEX3 gtAGG__rtDWork)) (iff constraint71 (= gtINDEX4 gtAGG__rtDWork)) (iff constraint72 (= gtINDEX5 gtAGG__rtDWork)) (iff constraint73 (= gtINDEX6 gtAGG__rtDWork)) (iff constraint74 (= gtINDEX7 gtAGG__rtDWork)) (iff constraint75 $x342) (iff constraint76 (= gtINDEX9 gtAGG__rtDWork)) (iff constraint77 $x346) (iff constraint78 (= gtINDEX11 gtAGG__rtDWork)) (iff constraint79 $x350) (iff constraint80 (= gtINDEX13 gtAGG__rtDWork)) (iff constraint81 $x354) (iff constraint82 (= gtINDEX15 gtAGG__rtDWork)) (iff constraint83 $x358) (iff constraint84 (= gtINDEX17 gtAGG__rtDWork)) (iff constraint85 $x362) (iff constraint86 (= gtINDEX19 gtAGG__rtDWork)) (iff constraint87 $x366) (iff constraint88 (= gtINDEX21 gtAGG__rtDWork)) (iff constraint89 $x370) (iff constraint90 (= gtINDEX23 gtAGG__rtDWork)) (iff constraint91 $x374) (iff constraint92 (= gtINDEX25 gtAGG__rtDWork)) (iff constraint93 $x378) (iff constraint94 (= gtINDEX27 gtAGG__rtDWork)) (iff constraint95 $x382) (iff constraint96 (= gtINDEX29 gtAGG__rtDWork)) (iff constraint97 $x386) (iff constraint98 (= gtINDEX31 gtAGG__rtDWork)) (iff constraint99 $x390) (iff constraint100 (= gtINDEX33 gtAGG__rtDWork)) (iff constraint101 $x394) (iff constraint102 (= gtINDEX35 gtAGG__rtDWork)) (iff constraint103 (= gtINDEX36 gtAGG__rtDWork)) (iff constraint104 $x399) (iff constraint105 (= gtINDEX38 gtAGG__rtDWork)) (iff constraint106 $x403) (iff constraint107 (= gtINDEX40 gtAGG__rtDWork)) (iff constraint108 (= gtINDEX41 gtAGG__rtDWork)) (iff constraint109 $x408) (iff constraint110 (= gtINDEX43 gtAGG__rtDWork)) (iff constraint111 $x412) (iff constraint112 (= gtINDEX45 gtAGG__rtDWork)) (iff constraint113 (= gtINDEX46 gtAGG__rtDWork)) (iff constraint114 (= gtINDEX47 gtAGG__rtDWork)) (iff constraint115 $x418) (iff constraint116 (= gtINDEX49 gtAGG__rtDWork)) (iff constraint117 $x422) (iff constraint118 (= gtINDEX51 gtAGG__rtDWork)) (iff constraint119 $x426) (iff constraint120 (= gtINDEX53 gtAGG__rtDWork)) (iff constraint121 $x430) (iff constraint122 (= gtINDEX55 gtAGG__rtDWork)) (iff constraint123 $x434) (iff constraint124 (= gtINDEX57 gtAGG__rtDWork)) (iff constraint125 $x438) (iff constraint126 (= gtINDEX59 gtAGG__rtDWork)) (iff constraint127 $x442) (iff constraint128 (= gtINDEX61 gtAGG__rtDWork)) (iff constraint129 $x446) (iff constraint130 (= gtINDEX63 gtAGG__rtDWork)) (iff constraint131 $x450) (iff constraint132 (= gtINDEX65 gtAGG__rtDWork)) (iff constraint133 $x454) (iff constraint134 (= gtINDEX67 gtAGG__rtDWork)) (iff constraint135 $x458) (iff constraint136 (= gtINDEX69 gtAGG__rtDWork)) (iff constraint137 $x462) (iff constraint138 (= gtINDEX71 gtAGG__rtDWork)) (iff constraint139 $x466) (iff constraint140 (= gtINDEX73 gtAGG__rtDWork)) (iff constraint141 $x470) (iff constraint142 (= gtINDEX75 gtAGG__rtDWork)) (iff constraint143 (= gtINDEX76 gtAGG__rtDWork)) (iff constraint144 $x475) (iff constraint145 (= gtINDEX78 gtAGG__rtDWork)) (iff constraint146 $x479) (iff constraint147 (= gtINDEX80 gtAGG__rtDWork)) (iff constraint148 (= gtINDEX81 gtAGG__rtDWork)) (iff constraint149 $x484) (iff constraint150 (= gtINDEX83 gtAGG__rtDWork)) (iff constraint151 (= gtINDEX84 gtAGG__rtDWork)) (iff constraint152 $x489) (iff constraint153 (= gtINDEX86 gtAGG__rtDWork)) (iff constraint154 $x493) (iff constraint155 (= gtINDEX88 gtAGG__rtDWork)) (iff constraint156 (= gtINDEX89 gtAGG__rtDWork)) (iff constraint157 (= gtINDEX90 gtAGG__rtDWork)) (iff constraint158 (= gtINDEX91 gtAGG__rtDWork)) (iff constraint159 (= gtINDEX92 gtAGG__rtDWork)) (iff constraint160 $x501) (iff constraint161 (= gtINDEX94 gtAGG__rtDWork)) (iff constraint162 $x505) (iff constraint163 (= gtINDEX96 gtAGG__rtDWork)) (iff constraint164 $x509) (iff constraint165 (= gtINDEX98 gtAGG__rtDWork)) (iff constraint166 $x513)))
(and $x848 $x849)))))))))))))))))))))))))))))))))))))))))))))))))))))))))))))))))))))))))))))))))))))))))))))))))))))))))))))))))))))
)
